objective value:                                  -64
t_x17                                               1 	(obj:-100)
t_y17_287                                           1 	(obj:1)
t_y17_57                                            1 	(obj:1)
t_y17_487                                           1 	(obj:1)
t_y17_237                                           1 	(obj:1)
t_y17_63                                            1 	(obj:1)
t_y17_504                                           1 	(obj:1)
t_y17_552                                           1 	(obj:1)
t_y17_273                                           1 	(obj:1)
t_y17_397                                           1 	(obj:1)
t_y17_139                                           1 	(obj:1)
t_y17_521                                           1 	(obj:1)
t_y17_556                                           1 	(obj:1)
t_y17_248                                           1 	(obj:1)
t_y17_496                                           1 	(obj:1)
t_y17_476                                           1 	(obj:1)
t_y17_254                                           1 	(obj:1)
t_y17_378                                           1 	(obj:1)
t_y17_420                                           1 	(obj:1)
t_y17_384                                           1 	(obj:1)
t_y17_465                                           1 	(obj:1)
t_y17_264                                           1 	(obj:1)
t_y17_548                                           1 	(obj:1)
t_y17_221                                           1 	(obj:1)
t_y17_122                                           1 	(obj:1)
t_y17_128                                           1 	(obj:1)
t_y17_191                                           1 	(obj:1)
t_y17_349                                           1 	(obj:1)
t_y17_235                                           1 	(obj:1)
t_y17_541                                           1 	(obj:1)
t_y17_69                                            1 	(obj:1)
t_y17_483                                           1 	(obj:1)
t_y17_124                                           1 	(obj:1)
t_y17_158                                           1 	(obj:1)
t_y17_212                                           1 	(obj:1)
t_y17_203                                           1 	(obj:1)
t_y17_529                                           1 	(obj:1)
